(declare-fun v6 () Bool)
(declare-fun v7 () Bool)
(declare-fun v13 () Bool)
(declare-fun v15 () Bool)
(assert (=> (=> v15 v6) (= v13 v7)))
(check-sat)
(check-sat)
(push)
(check-sat)
(pop)
(assert (= v15 (= v13 v7)))
(check-sat)
(push)
(check-sat)
(pop)
(assert (distinct true v15))
(push)
(check-sat)
(pop)
(push)
(check-sat)
(pop)
(push)
(check-sat)
(pop)
(push)
(check-sat)
(pop)
(check-sat)
